NAME : Unnamed.755.tour
COMMENT : Length = 755
COMMENT : Found by LKH [Keld Helsgaun] Wed Oct 22 13:40:04 2014
TYPE : TOUR
DIMENSION : 95
TOUR_SECTION
1
12
19
18
10
29
83
87
39
81
88
82
86
32
15
11
26
6
4
84
85
89
80
36
63
74
92
91
60
58
94
93
90
56
67
76
64
72
59
69
71
68
57
54
65
78
66
79
77
70
52
51
75
50
62
61
53
55
73
47
34
25
37
38
8
42
3
35
44
41
5
2
9
20
13
45
46
27
24
14
40
30
17
95
21
43
22
49
31
7
16
48
28
33
23
-1
EOF
